8772
6221
6235
3695
3477
7998
8248
649
2221
6361
1369
7965
496
6971
8044
2256
7778
642
2354
7452
2582
4027
2301
8622
7458
1960
2179
1651
8228
8318
2170
7351
525
3349
4409
7870
6138
8975
7054
2704
522
5717
6270
687
3472
974
10092
5140
1646
10037
10022
